;(set-option :produce-unsat-cores true )
(set-logic ALL_SUPPORTED )
(declare-sort A$ 0 )
(declare-sort Nat$ 0 )
(declare-sort A_set$ 0 )
(declare-sort A_llist_set$ 0 )
(declare-codatatypes ()((A_llist$ (lNil$ )(lCons$ (lhd$ A$ )(ltl$ A_llist$ )))))
(declare-fun a$ ()A_set$ )
(declare-fun p$ ()A_llist_set$ )
(declare-fun lrev$ (A_llist$ )A_llist$ )
(declare-fun suff$ (A_set$ A_llist$ )A_llist_set$ )
(declare-fun ltake$ (A_llist$ Nat$ )A_llist$ )
(declare-fun member$ (A_llist$ A_llist_set$ )Bool )
(declare-fun alllsts$ (A_set$ )A_llist_set$ )
(declare-fun finlsts$ (A_set$ )A_llist_set$ )
(declare-fun fpslsts$ (A_set$ )A_llist_set$ )
(declare-fun inflsts$ (A_set$ )A_llist_set$ )
(declare-fun lappend$ (A_llist$ A_llist$ )A_llist$ )
(declare-fun liveness$ (A_set$ A_llist_set$ )Bool )
(declare-fun posliveness$ (A_set$ A_llist_set$ )Bool )
(assert (! (not (liveness$ a$ p$ )):named a0 ))
(assert (! (forall ((?v0 A_llist$ ))(=> (member$ ?v0 (finlsts$ a$ ))(exists ((?v1 A_llist$ ))(and (member$ ?v1 (alllsts$ a$ ))(member$ (lappend$ ?v0 ?v1 )p$ ))))):named a1 ))
(assert (! (forall ((?v0 A_llist$ )(?v1 A_llist$ )(?v2 A_set$ ))(= (member$ (lappend$ ?v0 ?v1 )(finlsts$ ?v2 ))(and (member$ ?v0 (finlsts$ ?v2 ))(member$ ?v1 (finlsts$ ?v2 ))))):named a2 ))
(assert (! (forall ((?v0 A_llist$ )(?v1 A_set$ )(?v2 A_llist$ )(?v3 A_llist$ ))(=> (member$ ?v0 (finlsts$ ?v1 ))(= (= (lappend$ ?v0 ?v2 )(lappend$ ?v0 ?v3 ))(= ?v2 ?v3 )))):named a3 ))
(assert (! (forall ((?v0 A_set$ )(?v1 A_llist_set$ ))(= (liveness$ ?v0 ?v1 )(forall ((?v2 A_llist$ ))(=> (member$ ?v2 (finlsts$ ?v0 ))(exists ((?v3 A_llist$ ))(and (member$ ?v3 (alllsts$ ?v0 ))(member$ (lappend$ ?v2 ?v3 )?v1 ))))))):named a4 ))
(assert (! (forall ((?v0 A_llist$ )(?v1 A_llist$ )(?v2 A_set$ ))(=> (member$ (lappend$ ?v0 ?v1 )(alllsts$ ?v2 ))(member$ ?v0 (alllsts$ ?v2 )))):named a5 ))
(assert (! (forall ((?v0 A_llist$ )(?v1 A_llist$ )(?v2 A_set$ ))(=> (member$ (lappend$ ?v0 ?v1 )(finlsts$ ?v2 ))(member$ ?v0 (finlsts$ ?v2 )))):named a6 ))
(assert (! (forall ((?v0 A_llist$ )(?v1 A_set$ )(?v2 A_llist$ ))(=> (and (member$ ?v0 (alllsts$ ?v1 ))(member$ ?v2 (alllsts$ ?v1 )))(member$ (lappend$ ?v0 ?v2 )(alllsts$ ?v1 )))):named a7 ))
(assert (! (forall ((?v0 A_llist$ )(?v1 A_set$ )(?v2 A_set$ ))(=> (and (member$ ?v0 (finlsts$ ?v1 ))(member$ ?v0 (alllsts$ ?v2 )))(member$ ?v0 (finlsts$ ?v2 )))):named a8 ))
(assert (! (forall ((?v0 A_llist$ )(?v1 A_set$ )(?v2 A_llist$ ))(=> (and (member$ ?v0 (finlsts$ ?v1 ))(member$ ?v2 (finlsts$ ?v1 )))(member$ (lappend$ ?v0 ?v2 )(finlsts$ ?v1 )))):named a9 ))
(assert (! (forall ((?v0 A_llist$ )(?v1 A_set$ ))(=> (member$ ?v0 (finlsts$ ?v1 ))(member$ ?v0 (alllsts$ ?v1 )))):named a10 ))
(assert (! (forall ((?v0 A_llist$ )(?v1 A_set$ )(?v2 A_llist$ ))(=> (and (member$ ?v0 (finlsts$ ?v1 ))(and (member$ ?v2 (suff$ ?v1 ?v0 ))(forall ((?v3 A_llist$ ))(=> (and (member$ ?v3 (alllsts$ ?v1 ))(= ?v2 (lappend$ ?v0 ?v3 )))false ))))false )):named a11 ))
(assert (! (forall ((?v0 A_llist$ )(?v1 A_set$ )(?v2 Nat$ ))(=> (member$ ?v0 (alllsts$ ?v1 ))(member$ (ltake$ ?v0 ?v2 )(finlsts$ ?v1 )))):named a12 ))
(assert (! (forall ((?v0 A_llist$ )(?v1 A_llist$ )(?v2 A_set$ ))(= (member$ (lappend$ ?v0 ?v1 )(alllsts$ ?v2 ))(or (and (member$ ?v0 (finlsts$ ?v2 ))(member$ ?v1 (alllsts$ ?v2 )))(member$ ?v0 (inflsts$ ?v2 ))))):named a13 ))
(assert (! (forall ((?v0 A_llist$ )(?v1 A_llist$ )(?v2 A_llist$ ))(= (lappend$ (lappend$ ?v0 ?v1 )?v2 )(lappend$ ?v0 (lappend$ ?v1 ?v2 )))):named a14 ))
(assert (! (forall ((?v0 A_set$ )(?v1 A_llist_set$ ))(= (posliveness$ ?v0 ?v1 )(forall ((?v2 A_llist$ ))(=> (member$ ?v2 (fpslsts$ ?v0 ))(exists ((?v3 A_llist$ ))(and (member$ ?v3 (alllsts$ ?v0 ))(member$ (lappend$ ?v2 ?v3 )?v1 ))))))):named a15 ))
(assert (! (forall ((?v0 A_llist$ )(?v1 A_set$ ))(=> (member$ ?v0 (finlsts$ ?v1 ))(member$ (lrev$ ?v0 )(finlsts$ ?v1 )))):named a16 ))
(assert (! (forall ((?v0 A_llist$ )(?v1 A_set$ ))(=> (and (member$ ?v0 (alllsts$ ?v1 ))(and (=> (member$ ?v0 (finlsts$ ?v1 ))false )(=> (member$ ?v0 (inflsts$ ?v1 ))false )))false )):named a17 ))
(assert (! (forall ((?v0 A_llist$ )(?v1 A_set$ )(?v2 A_llist$ ))(=> (member$ ?v0 (suff$ ?v1 ?v2 ))(member$ ?v0 (alllsts$ ?v1 )))):named a18 ))
(check-sat )
;(get-unsat-core )
